p cnf 7230 17
-2146 -2864 3443 0
-2870 -2942 -3448 0
-2150 -2868 -3446 0
-2148 -2866 -3444 0
2870 -3449 0
2150 -3447 0
2148 -3445 0
3448 3449 0
3446 3447 0
3444 3445 0
2942 -3449 0
2868 -3447 0
2866 -3445 0
-3442 -3443 0
2876 -3451 0
2160 -3451 0
3442 3443 0
